Minimize
colors_used: w0 + w1 + w2 + w3 + w4 + w5 + w6 + w7 + w8 + w9 + w10 + w11 + w12 + w13 + w14 + w15
Subject To
n0: x0,0 + x0,1 + x0,2 + x0,3 + x0,4 + x0,5 + x0,6 + x0,7 + x0,8 + x0,9 + x0,10 + x0,11 + x0,12 + x0,13 + x0,14 + x0,15 = 1
n1: x1,0 + x1,1 + x1,2 + x1,3 + x1,4 + x1,5 + x1,6 + x1,7 + x1,8 + x1,9 + x1,10 + x1,11 + x1,12 + x1,13 + x1,14 + x1,15 = 1
n2: x2,0 + x2,1 + x2,2 + x2,3 + x2,4 + x2,5 + x2,6 + x2,7 + x2,8 + x2,9 + x2,10 + x2,11 + x2,12 + x2,13 + x2,14 + x2,15 = 1
n3: x3,0 + x3,1 + x3,2 + x3,3 + x3,4 + x3,5 + x3,6 + x3,7 + x3,8 + x3,9 + x3,10 + x3,11 + x3,12 + x3,13 + x3,14 + x3,15 = 1
n4: x4,0 + x4,1 + x4,2 + x4,3 + x4,4 + x4,5 + x4,6 + x4,7 + x4,8 + x4,9 + x4,10 + x4,11 + x4,12 + x4,13 + x4,14 + x4,15 = 1
n5: x5,0 + x5,1 + x5,2 + x5,3 + x5,4 + x5,5 + x5,6 + x5,7 + x5,8 + x5,9 + x5,10 + x5,11 + x5,12 + x5,13 + x5,14 + x5,15 = 1
n6: x6,0 + x6,1 + x6,2 + x6,3 + x6,4 + x6,5 + x6,6 + x6,7 + x6,8 + x6,9 + x6,10 + x6,11 + x6,12 + x6,13 + x6,14 + x6,15 = 1
n7: x7,0 + x7,1 + x7,2 + x7,3 + x7,4 + x7,5 + x7,6 + x7,7 + x7,8 + x7,9 + x7,10 + x7,11 + x7,12 + x7,13 + x7,14 + x7,15 = 1
n8: x8,0 + x8,1 + x8,2 + x8,3 + x8,4 + x8,5 + x8,6 + x8,7 + x8,8 + x8,9 + x8,10 + x8,11 + x8,12 + x8,13 + x8,14 + x8,15 = 1
n9: x9,0 + x9,1 + x9,2 + x9,3 + x9,4 + x9,5 + x9,6 + x9,7 + x9,8 + x9,9 + x9,10 + x9,11 + x9,12 + x9,13 + x9,14 + x9,15 = 1
n10: x10,0 + x10,1 + x10,2 + x10,3 + x10,4 + x10,5 + x10,6 + x10,7 + x10,8 + x10,9 + x10,10 + x10,11 + x10,12 + x10,13 + x10,14 + x10,15 = 1
n11: x11,0 + x11,1 + x11,2 + x11,3 + x11,4 + x11,5 + x11,6 + x11,7 + x11,8 + x11,9 + x11,10 + x11,11 + x11,12 + x11,13 + x11,14 + x11,15 = 1
n12: x12,0 + x12,1 + x12,2 + x12,3 + x12,4 + x12,5 + x12,6 + x12,7 + x12,8 + x12,9 + x12,10 + x12,11 + x12,12 + x12,13 + x12,14 + x12,15 = 1
n13: x13,0 + x13,1 + x13,2 + x13,3 + x13,4 + x13,5 + x13,6 + x13,7 + x13,8 + x13,9 + x13,10 + x13,11 + x13,12 + x13,13 + x13,14 + x13,15 = 1
n14: x14,0 + x14,1 + x14,2 + x14,3 + x14,4 + x14,5 + x14,6 + x14,7 + x14,8 + x14,9 + x14,10 + x14,11 + x14,12 + x14,13 + x14,14 + x14,15 = 1
n15: x15,0 + x15,1 + x15,2 + x15,3 + x15,4 + x15,5 + x15,6 + x15,7 + x15,8 + x15,9 + x15,10 + x15,11 + x15,12 + x15,13 + x15,14 + x15,15 = 1
e0,2_0: x0,0 + x2,0 - w0 <= 0
e0,2_1: x0,1 + x2,1 - w1 <= 0
e0,2_2: x0,2 + x2,2 - w2 <= 0
e0,2_3: x0,3 + x2,3 - w3 <= 0
e0,2_4: x0,4 + x2,4 - w4 <= 0
e0,2_5: x0,5 + x2,5 - w5 <= 0
e0,2_6: x0,6 + x2,6 - w6 <= 0
e0,2_7: x0,7 + x2,7 - w7 <= 0
e0,2_8: x0,8 + x2,8 - w8 <= 0
e0,2_9: x0,9 + x2,9 - w9 <= 0
e0,2_10: x0,10 + x2,10 - w10 <= 0
e0,2_11: x0,11 + x2,11 - w11 <= 0
e0,2_12: x0,12 + x2,12 - w12 <= 0
e0,2_13: x0,13 + x2,13 - w13 <= 0
e0,2_14: x0,14 + x2,14 - w14 <= 0
e0,2_15: x0,15 + x2,15 - w15 <= 0
e0,3_0: x0,0 + x3,0 - w0 <= 0
e0,3_1: x0,1 + x3,1 - w1 <= 0
e0,3_2: x0,2 + x3,2 - w2 <= 0
e0,3_3: x0,3 + x3,3 - w3 <= 0
e0,3_4: x0,4 + x3,4 - w4 <= 0
e0,3_5: x0,5 + x3,5 - w5 <= 0
e0,3_6: x0,6 + x3,6 - w6 <= 0
e0,3_7: x0,7 + x3,7 - w7 <= 0
e0,3_8: x0,8 + x3,8 - w8 <= 0
e0,3_9: x0,9 + x3,9 - w9 <= 0
e0,3_10: x0,10 + x3,10 - w10 <= 0
e0,3_11: x0,11 + x3,11 - w11 <= 0
e0,3_12: x0,12 + x3,12 - w12 <= 0
e0,3_13: x0,13 + x3,13 - w13 <= 0
e0,3_14: x0,14 + x3,14 - w14 <= 0
e0,3_15: x0,15 + x3,15 - w15 <= 0
e0,6_0: x0,0 + x6,0 - w0 <= 0
e0,6_1: x0,1 + x6,1 - w1 <= 0
e0,6_2: x0,2 + x6,2 - w2 <= 0
e0,6_3: x0,3 + x6,3 - w3 <= 0
e0,6_4: x0,4 + x6,4 - w4 <= 0
e0,6_5: x0,5 + x6,5 - w5 <= 0
e0,6_6: x0,6 + x6,6 - w6 <= 0
e0,6_7: x0,7 + x6,7 - w7 <= 0
e0,6_8: x0,8 + x6,8 - w8 <= 0
e0,6_9: x0,9 + x6,9 - w9 <= 0
e0,6_10: x0,10 + x6,10 - w10 <= 0
e0,6_11: x0,11 + x6,11 - w11 <= 0
e0,6_12: x0,12 + x6,12 - w12 <= 0
e0,6_13: x0,13 + x6,13 - w13 <= 0
e0,6_14: x0,14 + x6,14 - w14 <= 0
e0,6_15: x0,15 + x6,15 - w15 <= 0
e0,9_0: x0,0 + x9,0 - w0 <= 0
e0,9_1: x0,1 + x9,1 - w1 <= 0
e0,9_2: x0,2 + x9,2 - w2 <= 0
e0,9_3: x0,3 + x9,3 - w3 <= 0
e0,9_4: x0,4 + x9,4 - w4 <= 0
e0,9_5: x0,5 + x9,5 - w5 <= 0
e0,9_6: x0,6 + x9,6 - w6 <= 0
e0,9_7: x0,7 + x9,7 - w7 <= 0
e0,9_8: x0,8 + x9,8 - w8 <= 0
e0,9_9: x0,9 + x9,9 - w9 <= 0
e0,9_10: x0,10 + x9,10 - w10 <= 0
e0,9_11: x0,11 + x9,11 - w11 <= 0
e0,9_12: x0,12 + x9,12 - w12 <= 0
e0,9_13: x0,13 + x9,13 - w13 <= 0
e0,9_14: x0,14 + x9,14 - w14 <= 0
e0,9_15: x0,15 + x9,15 - w15 <= 0
e0,10_0: x0,0 + x10,0 - w0 <= 0
e0,10_1: x0,1 + x10,1 - w1 <= 0
e0,10_2: x0,2 + x10,2 - w2 <= 0
e0,10_3: x0,3 + x10,3 - w3 <= 0
e0,10_4: x0,4 + x10,4 - w4 <= 0
e0,10_5: x0,5 + x10,5 - w5 <= 0
e0,10_6: x0,6 + x10,6 - w6 <= 0
e0,10_7: x0,7 + x10,7 - w7 <= 0
e0,10_8: x0,8 + x10,8 - w8 <= 0
e0,10_9: x0,9 + x10,9 - w9 <= 0
e0,10_10: x0,10 + x10,10 - w10 <= 0
e0,10_11: x0,11 + x10,11 - w11 <= 0
e0,10_12: x0,12 + x10,12 - w12 <= 0
e0,10_13: x0,13 + x10,13 - w13 <= 0
e0,10_14: x0,14 + x10,14 - w14 <= 0
e0,10_15: x0,15 + x10,15 - w15 <= 0
e0,11_0: x0,0 + x11,0 - w0 <= 0
e0,11_1: x0,1 + x11,1 - w1 <= 0
e0,11_2: x0,2 + x11,2 - w2 <= 0
e0,11_3: x0,3 + x11,3 - w3 <= 0
e0,11_4: x0,4 + x11,4 - w4 <= 0
e0,11_5: x0,5 + x11,5 - w5 <= 0
e0,11_6: x0,6 + x11,6 - w6 <= 0
e0,11_7: x0,7 + x11,7 - w7 <= 0
e0,11_8: x0,8 + x11,8 - w8 <= 0
e0,11_9: x0,9 + x11,9 - w9 <= 0
e0,11_10: x0,10 + x11,10 - w10 <= 0
e0,11_11: x0,11 + x11,11 - w11 <= 0
e0,11_12: x0,12 + x11,12 - w12 <= 0
e0,11_13: x0,13 + x11,13 - w13 <= 0
e0,11_14: x0,14 + x11,14 - w14 <= 0
e0,11_15: x0,15 + x11,15 - w15 <= 0
e1,2_0: x1,0 + x2,0 - w0 <= 0
e1,2_1: x1,1 + x2,1 - w1 <= 0
e1,2_2: x1,2 + x2,2 - w2 <= 0
e1,2_3: x1,3 + x2,3 - w3 <= 0
e1,2_4: x1,4 + x2,4 - w4 <= 0
e1,2_5: x1,5 + x2,5 - w5 <= 0
e1,2_6: x1,6 + x2,6 - w6 <= 0
e1,2_7: x1,7 + x2,7 - w7 <= 0
e1,2_8: x1,8 + x2,8 - w8 <= 0
e1,2_9: x1,9 + x2,9 - w9 <= 0
e1,2_10: x1,10 + x2,10 - w10 <= 0
e1,2_11: x1,11 + x2,11 - w11 <= 0
e1,2_12: x1,12 + x2,12 - w12 <= 0
e1,2_13: x1,13 + x2,13 - w13 <= 0
e1,2_14: x1,14 + x2,14 - w14 <= 0
e1,2_15: x1,15 + x2,15 - w15 <= 0
e1,3_0: x1,0 + x3,0 - w0 <= 0
e1,3_1: x1,1 + x3,1 - w1 <= 0
e1,3_2: x1,2 + x3,2 - w2 <= 0
e1,3_3: x1,3 + x3,3 - w3 <= 0
e1,3_4: x1,4 + x3,4 - w4 <= 0
e1,3_5: x1,5 + x3,5 - w5 <= 0
e1,3_6: x1,6 + x3,6 - w6 <= 0
e1,3_7: x1,7 + x3,7 - w7 <= 0
e1,3_8: x1,8 + x3,8 - w8 <= 0
e1,3_9: x1,9 + x3,9 - w9 <= 0
e1,3_10: x1,10 + x3,10 - w10 <= 0
e1,3_11: x1,11 + x3,11 - w11 <= 0
e1,3_12: x1,12 + x3,12 - w12 <= 0
e1,3_13: x1,13 + x3,13 - w13 <= 0
e1,3_14: x1,14 + x3,14 - w14 <= 0
e1,3_15: x1,15 + x3,15 - w15 <= 0
e1,5_0: x1,0 + x5,0 - w0 <= 0
e1,5_1: x1,1 + x5,1 - w1 <= 0
e1,5_2: x1,2 + x5,2 - w2 <= 0
e1,5_3: x1,3 + x5,3 - w3 <= 0
e1,5_4: x1,4 + x5,4 - w4 <= 0
e1,5_5: x1,5 + x5,5 - w5 <= 0
e1,5_6: x1,6 + x5,6 - w6 <= 0
e1,5_7: x1,7 + x5,7 - w7 <= 0
e1,5_8: x1,8 + x5,8 - w8 <= 0
e1,5_9: x1,9 + x5,9 - w9 <= 0
e1,5_10: x1,10 + x5,10 - w10 <= 0
e1,5_11: x1,11 + x5,11 - w11 <= 0
e1,5_12: x1,12 + x5,12 - w12 <= 0
e1,5_13: x1,13 + x5,13 - w13 <= 0
e1,5_14: x1,14 + x5,14 - w14 <= 0
e1,5_15: x1,15 + x5,15 - w15 <= 0
e1,7_0: x1,0 + x7,0 - w0 <= 0
e1,7_1: x1,1 + x7,1 - w1 <= 0
e1,7_2: x1,2 + x7,2 - w2 <= 0
e1,7_3: x1,3 + x7,3 - w3 <= 0
e1,7_4: x1,4 + x7,4 - w4 <= 0
e1,7_5: x1,5 + x7,5 - w5 <= 0
e1,7_6: x1,6 + x7,6 - w6 <= 0
e1,7_7: x1,7 + x7,7 - w7 <= 0
e1,7_8: x1,8 + x7,8 - w8 <= 0
e1,7_9: x1,9 + x7,9 - w9 <= 0
e1,7_10: x1,10 + x7,10 - w10 <= 0
e1,7_11: x1,11 + x7,11 - w11 <= 0
e1,7_12: x1,12 + x7,12 - w12 <= 0
e1,7_13: x1,13 + x7,13 - w13 <= 0
e1,7_14: x1,14 + x7,14 - w14 <= 0
e1,7_15: x1,15 + x7,15 - w15 <= 0
e2,3_0: x2,0 + x3,0 - w0 <= 0
e2,3_1: x2,1 + x3,1 - w1 <= 0
e2,3_2: x2,2 + x3,2 - w2 <= 0
e2,3_3: x2,3 + x3,3 - w3 <= 0
e2,3_4: x2,4 + x3,4 - w4 <= 0
e2,3_5: x2,5 + x3,5 - w5 <= 0
e2,3_6: x2,6 + x3,6 - w6 <= 0
e2,3_7: x2,7 + x3,7 - w7 <= 0
e2,3_8: x2,8 + x3,8 - w8 <= 0
e2,3_9: x2,9 + x3,9 - w9 <= 0
e2,3_10: x2,10 + x3,10 - w10 <= 0
e2,3_11: x2,11 + x3,11 - w11 <= 0
e2,3_12: x2,12 + x3,12 - w12 <= 0
e2,3_13: x2,13 + x3,13 - w13 <= 0
e2,3_14: x2,14 + x3,14 - w14 <= 0
e2,3_15: x2,15 + x3,15 - w15 <= 0
e2,6_0: x2,0 + x6,0 - w0 <= 0
e2,6_1: x2,1 + x6,1 - w1 <= 0
e2,6_2: x2,2 + x6,2 - w2 <= 0
e2,6_3: x2,3 + x6,3 - w3 <= 0
e2,6_4: x2,4 + x6,4 - w4 <= 0
e2,6_5: x2,5 + x6,5 - w5 <= 0
e2,6_6: x2,6 + x6,6 - w6 <= 0
e2,6_7: x2,7 + x6,7 - w7 <= 0
e2,6_8: x2,8 + x6,8 - w8 <= 0
e2,6_9: x2,9 + x6,9 - w9 <= 0
e2,6_10: x2,10 + x6,10 - w10 <= 0
e2,6_11: x2,11 + x6,11 - w11 <= 0
e2,6_12: x2,12 + x6,12 - w12 <= 0
e2,6_13: x2,13 + x6,13 - w13 <= 0
e2,6_14: x2,14 + x6,14 - w14 <= 0
e2,6_15: x2,15 + x6,15 - w15 <= 0
e2,7_0: x2,0 + x7,0 - w0 <= 0
e2,7_1: x2,1 + x7,1 - w1 <= 0
e2,7_2: x2,2 + x7,2 - w2 <= 0
e2,7_3: x2,3 + x7,3 - w3 <= 0
e2,7_4: x2,4 + x7,4 - w4 <= 0
e2,7_5: x2,5 + x7,5 - w5 <= 0
e2,7_6: x2,6 + x7,6 - w6 <= 0
e2,7_7: x2,7 + x7,7 - w7 <= 0
e2,7_8: x2,8 + x7,8 - w8 <= 0
e2,7_9: x2,9 + x7,9 - w9 <= 0
e2,7_10: x2,10 + x7,10 - w10 <= 0
e2,7_11: x2,11 + x7,11 - w11 <= 0
e2,7_12: x2,12 + x7,12 - w12 <= 0
e2,7_13: x2,13 + x7,13 - w13 <= 0
e2,7_14: x2,14 + x7,14 - w14 <= 0
e2,7_15: x2,15 + x7,15 - w15 <= 0
e2,10_0: x2,0 + x10,0 - w0 <= 0
e2,10_1: x2,1 + x10,1 - w1 <= 0
e2,10_2: x2,2 + x10,2 - w2 <= 0
e2,10_3: x2,3 + x10,3 - w3 <= 0
e2,10_4: x2,4 + x10,4 - w4 <= 0
e2,10_5: x2,5 + x10,5 - w5 <= 0
e2,10_6: x2,6 + x10,6 - w6 <= 0
e2,10_7: x2,7 + x10,7 - w7 <= 0
e2,10_8: x2,8 + x10,8 - w8 <= 0
e2,10_9: x2,9 + x10,9 - w9 <= 0
e2,10_10: x2,10 + x10,10 - w10 <= 0
e2,10_11: x2,11 + x10,11 - w11 <= 0
e2,10_12: x2,12 + x10,12 - w12 <= 0
e2,10_13: x2,13 + x10,13 - w13 <= 0
e2,10_14: x2,14 + x10,14 - w14 <= 0
e2,10_15: x2,15 + x10,15 - w15 <= 0
e2,13_0: x2,0 + x13,0 - w0 <= 0
e2,13_1: x2,1 + x13,1 - w1 <= 0
e2,13_2: x2,2 + x13,2 - w2 <= 0
e2,13_3: x2,3 + x13,3 - w3 <= 0
e2,13_4: x2,4 + x13,4 - w4 <= 0
e2,13_5: x2,5 + x13,5 - w5 <= 0
e2,13_6: x2,6 + x13,6 - w6 <= 0
e2,13_7: x2,7 + x13,7 - w7 <= 0
e2,13_8: x2,8 + x13,8 - w8 <= 0
e2,13_9: x2,9 + x13,9 - w9 <= 0
e2,13_10: x2,10 + x13,10 - w10 <= 0
e2,13_11: x2,11 + x13,11 - w11 <= 0
e2,13_12: x2,12 + x13,12 - w12 <= 0
e2,13_13: x2,13 + x13,13 - w13 <= 0
e2,13_14: x2,14 + x13,14 - w14 <= 0
e2,13_15: x2,15 + x13,15 - w15 <= 0
e2,15_0: x2,0 + x15,0 - w0 <= 0
e2,15_1: x2,1 + x15,1 - w1 <= 0
e2,15_2: x2,2 + x15,2 - w2 <= 0
e2,15_3: x2,3 + x15,3 - w3 <= 0
e2,15_4: x2,4 + x15,4 - w4 <= 0
e2,15_5: x2,5 + x15,5 - w5 <= 0
e2,15_6: x2,6 + x15,6 - w6 <= 0
e2,15_7: x2,7 + x15,7 - w7 <= 0
e2,15_8: x2,8 + x15,8 - w8 <= 0
e2,15_9: x2,9 + x15,9 - w9 <= 0
e2,15_10: x2,10 + x15,10 - w10 <= 0
e2,15_11: x2,11 + x15,11 - w11 <= 0
e2,15_12: x2,12 + x15,12 - w12 <= 0
e2,15_13: x2,13 + x15,13 - w13 <= 0
e2,15_14: x2,14 + x15,14 - w14 <= 0
e2,15_15: x2,15 + x15,15 - w15 <= 0
e3,4_0: x3,0 + x4,0 - w0 <= 0
e3,4_1: x3,1 + x4,1 - w1 <= 0
e3,4_2: x3,2 + x4,2 - w2 <= 0
e3,4_3: x3,3 + x4,3 - w3 <= 0
e3,4_4: x3,4 + x4,4 - w4 <= 0
e3,4_5: x3,5 + x4,5 - w5 <= 0
e3,4_6: x3,6 + x4,6 - w6 <= 0
e3,4_7: x3,7 + x4,7 - w7 <= 0
e3,4_8: x3,8 + x4,8 - w8 <= 0
e3,4_9: x3,9 + x4,9 - w9 <= 0
e3,4_10: x3,10 + x4,10 - w10 <= 0
e3,4_11: x3,11 + x4,11 - w11 <= 0
e3,4_12: x3,12 + x4,12 - w12 <= 0
e3,4_13: x3,13 + x4,13 - w13 <= 0
e3,4_14: x3,14 + x4,14 - w14 <= 0
e3,4_15: x3,15 + x4,15 - w15 <= 0
e3,7_0: x3,0 + x7,0 - w0 <= 0
e3,7_1: x3,1 + x7,1 - w1 <= 0
e3,7_2: x3,2 + x7,2 - w2 <= 0
e3,7_3: x3,3 + x7,3 - w3 <= 0
e3,7_4: x3,4 + x7,4 - w4 <= 0
e3,7_5: x3,5 + x7,5 - w5 <= 0
e3,7_6: x3,6 + x7,6 - w6 <= 0
e3,7_7: x3,7 + x7,7 - w7 <= 0
e3,7_8: x3,8 + x7,8 - w8 <= 0
e3,7_9: x3,9 + x7,9 - w9 <= 0
e3,7_10: x3,10 + x7,10 - w10 <= 0
e3,7_11: x3,11 + x7,11 - w11 <= 0
e3,7_12: x3,12 + x7,12 - w12 <= 0
e3,7_13: x3,13 + x7,13 - w13 <= 0
e3,7_14: x3,14 + x7,14 - w14 <= 0
e3,7_15: x3,15 + x7,15 - w15 <= 0
e3,8_0: x3,0 + x8,0 - w0 <= 0
e3,8_1: x3,1 + x8,1 - w1 <= 0
e3,8_2: x3,2 + x8,2 - w2 <= 0
e3,8_3: x3,3 + x8,3 - w3 <= 0
e3,8_4: x3,4 + x8,4 - w4 <= 0
e3,8_5: x3,5 + x8,5 - w5 <= 0
e3,8_6: x3,6 + x8,6 - w6 <= 0
e3,8_7: x3,7 + x8,7 - w7 <= 0
e3,8_8: x3,8 + x8,8 - w8 <= 0
e3,8_9: x3,9 + x8,9 - w9 <= 0
e3,8_10: x3,10 + x8,10 - w10 <= 0
e3,8_11: x3,11 + x8,11 - w11 <= 0
e3,8_12: x3,12 + x8,12 - w12 <= 0
e3,8_13: x3,13 + x8,13 - w13 <= 0
e3,8_14: x3,14 + x8,14 - w14 <= 0
e3,8_15: x3,15 + x8,15 - w15 <= 0
e3,11_0: x3,0 + x11,0 - w0 <= 0
e3,11_1: x3,1 + x11,1 - w1 <= 0
e3,11_2: x3,2 + x11,2 - w2 <= 0
e3,11_3: x3,3 + x11,3 - w3 <= 0
e3,11_4: x3,4 + x11,4 - w4 <= 0
e3,11_5: x3,5 + x11,5 - w5 <= 0
e3,11_6: x3,6 + x11,6 - w6 <= 0
e3,11_7: x3,7 + x11,7 - w7 <= 0
e3,11_8: x3,8 + x11,8 - w8 <= 0
e3,11_9: x3,9 + x11,9 - w9 <= 0
e3,11_10: x3,10 + x11,10 - w10 <= 0
e3,11_11: x3,11 + x11,11 - w11 <= 0
e3,11_12: x3,12 + x11,12 - w12 <= 0
e3,11_13: x3,13 + x11,13 - w13 <= 0
e3,11_14: x3,14 + x11,14 - w14 <= 0
e3,11_15: x3,15 + x11,15 - w15 <= 0
e3,13_0: x3,0 + x13,0 - w0 <= 0
e3,13_1: x3,1 + x13,1 - w1 <= 0
e3,13_2: x3,2 + x13,2 - w2 <= 0
e3,13_3: x3,3 + x13,3 - w3 <= 0
e3,13_4: x3,4 + x13,4 - w4 <= 0
e3,13_5: x3,5 + x13,5 - w5 <= 0
e3,13_6: x3,6 + x13,6 - w6 <= 0
e3,13_7: x3,7 + x13,7 - w7 <= 0
e3,13_8: x3,8 + x13,8 - w8 <= 0
e3,13_9: x3,9 + x13,9 - w9 <= 0
e3,13_10: x3,10 + x13,10 - w10 <= 0
e3,13_11: x3,11 + x13,11 - w11 <= 0
e3,13_12: x3,12 + x13,12 - w12 <= 0
e3,13_13: x3,13 + x13,13 - w13 <= 0
e3,13_14: x3,14 + x13,14 - w14 <= 0
e3,13_15: x3,15 + x13,15 - w15 <= 0
e3,15_0: x3,0 + x15,0 - w0 <= 0
e3,15_1: x3,1 + x15,1 - w1 <= 0
e3,15_2: x3,2 + x15,2 - w2 <= 0
e3,15_3: x3,3 + x15,3 - w3 <= 0
e3,15_4: x3,4 + x15,4 - w4 <= 0
e3,15_5: x3,5 + x15,5 - w5 <= 0
e3,15_6: x3,6 + x15,6 - w6 <= 0
e3,15_7: x3,7 + x15,7 - w7 <= 0
e3,15_8: x3,8 + x15,8 - w8 <= 0
e3,15_9: x3,9 + x15,9 - w9 <= 0
e3,15_10: x3,10 + x15,10 - w10 <= 0
e3,15_11: x3,11 + x15,11 - w11 <= 0
e3,15_12: x3,12 + x15,12 - w12 <= 0
e3,15_13: x3,13 + x15,13 - w13 <= 0
e3,15_14: x3,14 + x15,14 - w14 <= 0
e3,15_15: x3,15 + x15,15 - w15 <= 0
e4,6_0: x4,0 + x6,0 - w0 <= 0
e4,6_1: x4,1 + x6,1 - w1 <= 0
e4,6_2: x4,2 + x6,2 - w2 <= 0
e4,6_3: x4,3 + x6,3 - w3 <= 0
e4,6_4: x4,4 + x6,4 - w4 <= 0
e4,6_5: x4,5 + x6,5 - w5 <= 0
e4,6_6: x4,6 + x6,6 - w6 <= 0
e4,6_7: x4,7 + x6,7 - w7 <= 0
e4,6_8: x4,8 + x6,8 - w8 <= 0
e4,6_9: x4,9 + x6,9 - w9 <= 0
e4,6_10: x4,10 + x6,10 - w10 <= 0
e4,6_11: x4,11 + x6,11 - w11 <= 0
e4,6_12: x4,12 + x6,12 - w12 <= 0
e4,6_13: x4,13 + x6,13 - w13 <= 0
e4,6_14: x4,14 + x6,14 - w14 <= 0
e4,6_15: x4,15 + x6,15 - w15 <= 0
e4,7_0: x4,0 + x7,0 - w0 <= 0
e4,7_1: x4,1 + x7,1 - w1 <= 0
e4,7_2: x4,2 + x7,2 - w2 <= 0
e4,7_3: x4,3 + x7,3 - w3 <= 0
e4,7_4: x4,4 + x7,4 - w4 <= 0
e4,7_5: x4,5 + x7,5 - w5 <= 0
e4,7_6: x4,6 + x7,6 - w6 <= 0
e4,7_7: x4,7 + x7,7 - w7 <= 0
e4,7_8: x4,8 + x7,8 - w8 <= 0
e4,7_9: x4,9 + x7,9 - w9 <= 0
e4,7_10: x4,10 + x7,10 - w10 <= 0
e4,7_11: x4,11 + x7,11 - w11 <= 0
e4,7_12: x4,12 + x7,12 - w12 <= 0
e4,7_13: x4,13 + x7,13 - w13 <= 0
e4,7_14: x4,14 + x7,14 - w14 <= 0
e4,7_15: x4,15 + x7,15 - w15 <= 0
e4,10_0: x4,0 + x10,0 - w0 <= 0
e4,10_1: x4,1 + x10,1 - w1 <= 0
e4,10_2: x4,2 + x10,2 - w2 <= 0
e4,10_3: x4,3 + x10,3 - w3 <= 0
e4,10_4: x4,4 + x10,4 - w4 <= 0
e4,10_5: x4,5 + x10,5 - w5 <= 0
e4,10_6: x4,6 + x10,6 - w6 <= 0
e4,10_7: x4,7 + x10,7 - w7 <= 0
e4,10_8: x4,8 + x10,8 - w8 <= 0
e4,10_9: x4,9 + x10,9 - w9 <= 0
e4,10_10: x4,10 + x10,10 - w10 <= 0
e4,10_11: x4,11 + x10,11 - w11 <= 0
e4,10_12: x4,12 + x10,12 - w12 <= 0
e4,10_13: x4,13 + x10,13 - w13 <= 0
e4,10_14: x4,14 + x10,14 - w14 <= 0
e4,10_15: x4,15 + x10,15 - w15 <= 0
e5,8_0: x5,0 + x8,0 - w0 <= 0
e5,8_1: x5,1 + x8,1 - w1 <= 0
e5,8_2: x5,2 + x8,2 - w2 <= 0
e5,8_3: x5,3 + x8,3 - w3 <= 0
e5,8_4: x5,4 + x8,4 - w4 <= 0
e5,8_5: x5,5 + x8,5 - w5 <= 0
e5,8_6: x5,6 + x8,6 - w6 <= 0
e5,8_7: x5,7 + x8,7 - w7 <= 0
e5,8_8: x5,8 + x8,8 - w8 <= 0
e5,8_9: x5,9 + x8,9 - w9 <= 0
e5,8_10: x5,10 + x8,10 - w10 <= 0
e5,8_11: x5,11 + x8,11 - w11 <= 0
e5,8_12: x5,12 + x8,12 - w12 <= 0
e5,8_13: x5,13 + x8,13 - w13 <= 0
e5,8_14: x5,14 + x8,14 - w14 <= 0
e5,8_15: x5,15 + x8,15 - w15 <= 0
e5,12_0: x5,0 + x12,0 - w0 <= 0
e5,12_1: x5,1 + x12,1 - w1 <= 0
e5,12_2: x5,2 + x12,2 - w2 <= 0
e5,12_3: x5,3 + x12,3 - w3 <= 0
e5,12_4: x5,4 + x12,4 - w4 <= 0
e5,12_5: x5,5 + x12,5 - w5 <= 0
e5,12_6: x5,6 + x12,6 - w6 <= 0
e5,12_7: x5,7 + x12,7 - w7 <= 0
e5,12_8: x5,8 + x12,8 - w8 <= 0
e5,12_9: x5,9 + x12,9 - w9 <= 0
e5,12_10: x5,10 + x12,10 - w10 <= 0
e5,12_11: x5,11 + x12,11 - w11 <= 0
e5,12_12: x5,12 + x12,12 - w12 <= 0
e5,12_13: x5,13 + x12,13 - w13 <= 0
e5,12_14: x5,14 + x12,14 - w14 <= 0
e5,12_15: x5,15 + x12,15 - w15 <= 0
e5,15_0: x5,0 + x15,0 - w0 <= 0
e5,15_1: x5,1 + x15,1 - w1 <= 0
e5,15_2: x5,2 + x15,2 - w2 <= 0
e5,15_3: x5,3 + x15,3 - w3 <= 0
e5,15_4: x5,4 + x15,4 - w4 <= 0
e5,15_5: x5,5 + x15,5 - w5 <= 0
e5,15_6: x5,6 + x15,6 - w6 <= 0
e5,15_7: x5,7 + x15,7 - w7 <= 0
e5,15_8: x5,8 + x15,8 - w8 <= 0
e5,15_9: x5,9 + x15,9 - w9 <= 0
e5,15_10: x5,10 + x15,10 - w10 <= 0
e5,15_11: x5,11 + x15,11 - w11 <= 0
e5,15_12: x5,12 + x15,12 - w12 <= 0
e5,15_13: x5,13 + x15,13 - w13 <= 0
e5,15_14: x5,14 + x15,14 - w14 <= 0
e5,15_15: x5,15 + x15,15 - w15 <= 0
e6,9_0: x6,0 + x9,0 - w0 <= 0
e6,9_1: x6,1 + x9,1 - w1 <= 0
e6,9_2: x6,2 + x9,2 - w2 <= 0
e6,9_3: x6,3 + x9,3 - w3 <= 0
e6,9_4: x6,4 + x9,4 - w4 <= 0
e6,9_5: x6,5 + x9,5 - w5 <= 0
e6,9_6: x6,6 + x9,6 - w6 <= 0
e6,9_7: x6,7 + x9,7 - w7 <= 0
e6,9_8: x6,8 + x9,8 - w8 <= 0
e6,9_9: x6,9 + x9,9 - w9 <= 0
e6,9_10: x6,10 + x9,10 - w10 <= 0
e6,9_11: x6,11 + x9,11 - w11 <= 0
e6,9_12: x6,12 + x9,12 - w12 <= 0
e6,9_13: x6,13 + x9,13 - w13 <= 0
e6,9_14: x6,14 + x9,14 - w14 <= 0
e6,9_15: x6,15 + x9,15 - w15 <= 0
e6,14_0: x6,0 + x14,0 - w0 <= 0
e6,14_1: x6,1 + x14,1 - w1 <= 0
e6,14_2: x6,2 + x14,2 - w2 <= 0
e6,14_3: x6,3 + x14,3 - w3 <= 0
e6,14_4: x6,4 + x14,4 - w4 <= 0
e6,14_5: x6,5 + x14,5 - w5 <= 0
e6,14_6: x6,6 + x14,6 - w6 <= 0
e6,14_7: x6,7 + x14,7 - w7 <= 0
e6,14_8: x6,8 + x14,8 - w8 <= 0
e6,14_9: x6,9 + x14,9 - w9 <= 0
e6,14_10: x6,10 + x14,10 - w10 <= 0
e6,14_11: x6,11 + x14,11 - w11 <= 0
e6,14_12: x6,12 + x14,12 - w12 <= 0
e6,14_13: x6,13 + x14,13 - w13 <= 0
e6,14_14: x6,14 + x14,14 - w14 <= 0
e6,14_15: x6,15 + x14,15 - w15 <= 0
e7,11_0: x7,0 + x11,0 - w0 <= 0
e7,11_1: x7,1 + x11,1 - w1 <= 0
e7,11_2: x7,2 + x11,2 - w2 <= 0
e7,11_3: x7,3 + x11,3 - w3 <= 0
e7,11_4: x7,4 + x11,4 - w4 <= 0
e7,11_5: x7,5 + x11,5 - w5 <= 0
e7,11_6: x7,6 + x11,6 - w6 <= 0
e7,11_7: x7,7 + x11,7 - w7 <= 0
e7,11_8: x7,8 + x11,8 - w8 <= 0
e7,11_9: x7,9 + x11,9 - w9 <= 0
e7,11_10: x7,10 + x11,10 - w10 <= 0
e7,11_11: x7,11 + x11,11 - w11 <= 0
e7,11_12: x7,12 + x11,12 - w12 <= 0
e7,11_13: x7,13 + x11,13 - w13 <= 0
e7,11_14: x7,14 + x11,14 - w14 <= 0
e7,11_15: x7,15 + x11,15 - w15 <= 0
e7,14_0: x7,0 + x14,0 - w0 <= 0
e7,14_1: x7,1 + x14,1 - w1 <= 0
e7,14_2: x7,2 + x14,2 - w2 <= 0
e7,14_3: x7,3 + x14,3 - w3 <= 0
e7,14_4: x7,4 + x14,4 - w4 <= 0
e7,14_5: x7,5 + x14,5 - w5 <= 0
e7,14_6: x7,6 + x14,6 - w6 <= 0
e7,14_7: x7,7 + x14,7 - w7 <= 0
e7,14_8: x7,8 + x14,8 - w8 <= 0
e7,14_9: x7,9 + x14,9 - w9 <= 0
e7,14_10: x7,10 + x14,10 - w10 <= 0
e7,14_11: x7,11 + x14,11 - w11 <= 0
e7,14_12: x7,12 + x14,12 - w12 <= 0
e7,14_13: x7,13 + x14,13 - w13 <= 0
e7,14_14: x7,14 + x14,14 - w14 <= 0
e7,14_15: x7,15 + x14,15 - w15 <= 0
e8,15_0: x8,0 + x15,0 - w0 <= 0
e8,15_1: x8,1 + x15,1 - w1 <= 0
e8,15_2: x8,2 + x15,2 - w2 <= 0
e8,15_3: x8,3 + x15,3 - w3 <= 0
e8,15_4: x8,4 + x15,4 - w4 <= 0
e8,15_5: x8,5 + x15,5 - w5 <= 0
e8,15_6: x8,6 + x15,6 - w6 <= 0
e8,15_7: x8,7 + x15,7 - w7 <= 0
e8,15_8: x8,8 + x15,8 - w8 <= 0
e8,15_9: x8,9 + x15,9 - w9 <= 0
e8,15_10: x8,10 + x15,10 - w10 <= 0
e8,15_11: x8,11 + x15,11 - w11 <= 0
e8,15_12: x8,12 + x15,12 - w12 <= 0
e8,15_13: x8,13 + x15,13 - w13 <= 0
e8,15_14: x8,14 + x15,14 - w14 <= 0
e8,15_15: x8,15 + x15,15 - w15 <= 0
e10,11_0: x10,0 + x11,0 - w0 <= 0
e10,11_1: x10,1 + x11,1 - w1 <= 0
e10,11_2: x10,2 + x11,2 - w2 <= 0
e10,11_3: x10,3 + x11,3 - w3 <= 0
e10,11_4: x10,4 + x11,4 - w4 <= 0
e10,11_5: x10,5 + x11,5 - w5 <= 0
e10,11_6: x10,6 + x11,6 - w6 <= 0
e10,11_7: x10,7 + x11,7 - w7 <= 0
e10,11_8: x10,8 + x11,8 - w8 <= 0
e10,11_9: x10,9 + x11,9 - w9 <= 0
e10,11_10: x10,10 + x11,10 - w10 <= 0
e10,11_11: x10,11 + x11,11 - w11 <= 0
e10,11_12: x10,12 + x11,12 - w12 <= 0
e10,11_13: x10,13 + x11,13 - w13 <= 0
e10,11_14: x10,14 + x11,14 - w14 <= 0
e10,11_15: x10,15 + x11,15 - w15 <= 0
e10,13_0: x10,0 + x13,0 - w0 <= 0
e10,13_1: x10,1 + x13,1 - w1 <= 0
e10,13_2: x10,2 + x13,2 - w2 <= 0
e10,13_3: x10,3 + x13,3 - w3 <= 0
e10,13_4: x10,4 + x13,4 - w4 <= 0
e10,13_5: x10,5 + x13,5 - w5 <= 0
e10,13_6: x10,6 + x13,6 - w6 <= 0
e10,13_7: x10,7 + x13,7 - w7 <= 0
e10,13_8: x10,8 + x13,8 - w8 <= 0
e10,13_9: x10,9 + x13,9 - w9 <= 0
e10,13_10: x10,10 + x13,10 - w10 <= 0
e10,13_11: x10,11 + x13,11 - w11 <= 0
e10,13_12: x10,12 + x13,12 - w12 <= 0
e10,13_13: x10,13 + x13,13 - w13 <= 0
e10,13_14: x10,14 + x13,14 - w14 <= 0
e10,13_15: x10,15 + x13,15 - w15 <= 0
e10,14_0: x10,0 + x14,0 - w0 <= 0
e10,14_1: x10,1 + x14,1 - w1 <= 0
e10,14_2: x10,2 + x14,2 - w2 <= 0
e10,14_3: x10,3 + x14,3 - w3 <= 0
e10,14_4: x10,4 + x14,4 - w4 <= 0
e10,14_5: x10,5 + x14,5 - w5 <= 0
e10,14_6: x10,6 + x14,6 - w6 <= 0
e10,14_7: x10,7 + x14,7 - w7 <= 0
e10,14_8: x10,8 + x14,8 - w8 <= 0
e10,14_9: x10,9 + x14,9 - w9 <= 0
e10,14_10: x10,10 + x14,10 - w10 <= 0
e10,14_11: x10,11 + x14,11 - w11 <= 0
e10,14_12: x10,12 + x14,12 - w12 <= 0
e10,14_13: x10,13 + x14,13 - w13 <= 0
e10,14_14: x10,14 + x14,14 - w14 <= 0
e10,14_15: x10,15 + x14,15 - w15 <= 0
e13,15_0: x13,0 + x15,0 - w0 <= 0
e13,15_1: x13,1 + x15,1 - w1 <= 0
e13,15_2: x13,2 + x15,2 - w2 <= 0
e13,15_3: x13,3 + x15,3 - w3 <= 0
e13,15_4: x13,4 + x15,4 - w4 <= 0
e13,15_5: x13,5 + x15,5 - w5 <= 0
e13,15_6: x13,6 + x15,6 - w6 <= 0
e13,15_7: x13,7 + x15,7 - w7 <= 0
e13,15_8: x13,8 + x15,8 - w8 <= 0
e13,15_9: x13,9 + x15,9 - w9 <= 0
e13,15_10: x13,10 + x15,10 - w10 <= 0
e13,15_11: x13,11 + x15,11 - w11 <= 0
e13,15_12: x13,12 + x15,12 - w12 <= 0
e13,15_13: x13,13 + x15,13 - w13 <= 0
e13,15_14: x13,14 + x15,14 - w14 <= 0
e13,15_15: x13,15 + x15,15 - w15 <= 0
e14,15_0: x14,0 + x15,0 - w0 <= 0
e14,15_1: x14,1 + x15,1 - w1 <= 0
e14,15_2: x14,2 + x15,2 - w2 <= 0
e14,15_3: x14,3 + x15,3 - w3 <= 0
e14,15_4: x14,4 + x15,4 - w4 <= 0
e14,15_5: x14,5 + x15,5 - w5 <= 0
e14,15_6: x14,6 + x15,6 - w6 <= 0
e14,15_7: x14,7 + x15,7 - w7 <= 0
e14,15_8: x14,8 + x15,8 - w8 <= 0
e14,15_9: x14,9 + x15,9 - w9 <= 0
e14,15_10: x14,10 + x15,10 - w10 <= 0
e14,15_11: x14,11 + x15,11 - w11 <= 0
e14,15_12: x14,12 + x15,12 - w12 <= 0
e14,15_13: x14,13 + x15,13 - w13 <= 0
e14,15_14: x14,14 + x15,14 - w14 <= 0
e14,15_15: x14,15 + x15,15 - w15 <= 0
Binary
x0,0 x0,1 x0,2 x0,3 x0,4 x0,5 x0,6 x0,7 x0,8 x0,9 x0,10 x0,11 x0,12 x0,13 x0,14 x0,15
x1,0 x1,1 x1,2 x1,3 x1,4 x1,5 x1,6 x1,7 x1,8 x1,9 x1,10 x1,11 x1,12 x1,13 x1,14 x1,15
x2,0 x2,1 x2,2 x2,3 x2,4 x2,5 x2,6 x2,7 x2,8 x2,9 x2,10 x2,11 x2,12 x2,13 x2,14 x2,15
x3,0 x3,1 x3,2 x3,3 x3,4 x3,5 x3,6 x3,7 x3,8 x3,9 x3,10 x3,11 x3,12 x3,13 x3,14 x3,15
x4,0 x4,1 x4,2 x4,3 x4,4 x4,5 x4,6 x4,7 x4,8 x4,9 x4,10 x4,11 x4,12 x4,13 x4,14 x4,15
x5,0 x5,1 x5,2 x5,3 x5,4 x5,5 x5,6 x5,7 x5,8 x5,9 x5,10 x5,11 x5,12 x5,13 x5,14 x5,15
x6,0 x6,1 x6,2 x6,3 x6,4 x6,5 x6,6 x6,7 x6,8 x6,9 x6,10 x6,11 x6,12 x6,13 x6,14 x6,15
x7,0 x7,1 x7,2 x7,3 x7,4 x7,5 x7,6 x7,7 x7,8 x7,9 x7,10 x7,11 x7,12 x7,13 x7,14 x7,15
x8,0 x8,1 x8,2 x8,3 x8,4 x8,5 x8,6 x8,7 x8,8 x8,9 x8,10 x8,11 x8,12 x8,13 x8,14 x8,15
x9,0 x9,1 x9,2 x9,3 x9,4 x9,5 x9,6 x9,7 x9,8 x9,9 x9,10 x9,11 x9,12 x9,13 x9,14 x9,15
x10,0 x10,1 x10,2 x10,3 x10,4 x10,5 x10,6 x10,7 x10,8 x10,9 x10,10 x10,11 x10,12 x10,13 x10,14 x10,15
x11,0 x11,1 x11,2 x11,3 x11,4 x11,5 x11,6 x11,7 x11,8 x11,9 x11,10 x11,11 x11,12 x11,13 x11,14 x11,15
x12,0 x12,1 x12,2 x12,3 x12,4 x12,5 x12,6 x12,7 x12,8 x12,9 x12,10 x12,11 x12,12 x12,13 x12,14 x12,15
x13,0 x13,1 x13,2 x13,3 x13,4 x13,5 x13,6 x13,7 x13,8 x13,9 x13,10 x13,11 x13,12 x13,13 x13,14 x13,15
x14,0 x14,1 x14,2 x14,3 x14,4 x14,5 x14,6 x14,7 x14,8 x14,9 x14,10 x14,11 x14,12 x14,13 x14,14 x14,15
x15,0 x15,1 x15,2 x15,3 x15,4 x15,5 x15,6 x15,7 x15,8 x15,9 x15,10 x15,11 x15,12 x15,13 x15,14 x15,15
w0 w1 w2 w3 w4 w5 w6 w7 w8 w9 w10 w11 w12 w13 w14 w15
End